c SAT Generator for power-law distributed variable frequencies
c -g u -v 20 -c 91 -k 3 -p 2.750000 -b 3.200000 -f /home/schmidt/Devel/ni-kop-sat/data/ensemble/ruf20-91/ruf20-91-735 -u 1 -U 1 -s 573525380
p cnf 20 91
-15 -18 19 0
-2 -5 7 0
-8 -12 16 0
5 -9 -10 0
4 9 -18 0
-1 -2 4 0
4 -17 -18 0
-4 -10 16 0
2 11 14 0
-8 15 -18 0
3 -17 -20 0
-3 -4 18 0
-10 -13 -15 0
9 10 -14 0
1 -7 -9 0
9 11 -16 0
5 -17 20 0
3 6 10 0
-3 8 -15 0
-5 10 -14 0
11 13 18 0
12 -13 15 0
-8 9 20 0
-4 -5 -10 0
4 13 -19 0
14 -16 -19 0
-5 -10 11 0
1 15 -18 0
-2 -11 12 0
-5 12 -19 0
-1 7 -11 0
1 10 18 0
-3 5 -17 0
3 -5 -13 0
3 -7 15 0
-5 11 -14 0
2 -18 -20 0
8 -11 -20 0
8 9 -10 0
3 -11 -14 0
-14 17 -18 0
9 15 -18 0
8 11 -16 0
1 8 -15 0
7 8 19 0
-10 11 -12 0
-6 11 14 0
4 8 11 0
-2 4 17 0
-2 6 -11 0
2 -6 -17 0
5 6 14 0
7 -9 19 0
5 -8 16 0
9 10 -15 0
2 -5 15 0
3 7 -15 0
3 8 11 0
1 -11 18 0
5 9 20 0
2 15 -18 0
7 10 20 0
10 13 18 0
7 -8 -14 0
-9 -16 17 0
2 -18 20 0
4 -9 -14 0
12 16 18 0
-3 -5 -8 0
10 -16 17 0
-4 7 -19 0
6 -7 20 0
-12 -15 -20 0
-1 8 13 0
1 3 -11 0
-9 12 15 0
-1 -2 9 0
-5 10 20 0
-7 -19 -20 0
1 9 19 0
-12 15 19 0
11 17 -19 0
-1 5 -17 0
7 9 -14 0
8 -15 -19 0
2 5 6 0
-8 15 -16 0
1 5 14 0
3 12 17 0
1 -5 16 0
9 -11 16 0
